data/smallknap.mps
NAME          BLANK   
ROWS
 N  OBJROW
 L  R0000000
COLUMNS
    C0000000  OBJROW     -512.         R0000000  412.        
    C0000001  OBJROW     -514.         R0000000  414.        
    C0000002  OBJROW     -256.         R0000000  156.        
    C0000003  OBJROW     -475.         R0000000  375.        
RHS
    RHS       R0000000  900.       
BOUNDS
 BV BOUND     C0000000  1.          
 BV BOUND     C0000001  1.          
 BV BOUND     C0000002  1.          
 BV BOUND     C0000003  1.          
ENDATA
