old/smallknap.txt
N 4
M 5
LC 4
LC 5
LC 6
LC 7
LR 1
LR 2
LR 3
LR 4
LR 5
LO -512
LO -514
LO -256
LO -475
OS 1
IC 680
IC 635
IC 678
IC 837
IB 1400
